; ./aeval/./multi-phase/s_split_02_000.smt2
(set-logic HORN)

(declare-fun |inv| ( Int Int Int ) Bool)
(declare-fun |fail| ( ) Bool)

(assert
  (forall ( (A Int) (B Int) (C Int) ) 
    (=>
      (and
        (and (= B 200) (= C 400) (= A 0))
      )
      (inv A B C)
    )
  )
)
(assert
  (forall ( (A Int) (B Int) (C Int) (D Int) (E Int) (F Int) ) 
    (=>
      (and
        (inv B A C)
        (and (= E (ite (<= 200 B) A (+ 1 A)))
     (= F (ite (<= 200 B) (+ 2 C) C))
     (= D (+ 1 B)))
      )
      (inv D E F)
    )
  )
)
(assert
  (forall ( (A Int) (B Int) (C Int) ) 
    (=>
      (and
        (inv C A B)
        (and (>= A 400) (not (= B (* 2 C))))
      )
      fail
    )
  )
)
(assert
  (forall ( (CHC_COMP_UNUSED Bool) ) 
    (=>
      (and
        fail
        true
      )
      false
    )
  )
)

(check-sat)
(exit)
